data/solutions/recovery/wellformed/moderate/flexible/wellformed_moderate_instance11/53.sol
Elapsed time: 0.21
Upper bound: 11159.0
Planning weighted value: 86692.0
C[0]=11159.0
C[1]=11159.0
C[2]=11154.0
y[0]=2
y[1]=1
y[2]=0
y[3]=0
y[4]=1
y[5]=1
y[6]=2
y[7]=0
y[8]=0
y[9]=2
y[10]=0
y[11]=1
y[12]=1
y[13]=2
y[14]=2
y[15]=0
y[16]=0
y[17]=0
y[18]=1
y[19]=1
y[20]=2
y[21]=1
y[22]=2
y[23]=1
y[24]=1
y[25]=0
y[26]=0
y[27]=1
y[28]=2
y[29]=0
y[30]=2
y[31]=2
y[32]=2
