data/solutions/recovery/wellformed/moderate/flexible/wellformed_moderate_instance11/53.log

Log started (V12.6.3.0) Fri Apr 20 20:57:39 2018

New value for default parallel thread count: 1

Problem '/tmp/tmp1H0an3.pyomo.lp' read.
Read time = 0.00 sec. (0.03 ticks)

Problem name         : /tmp/tmp1H0an3.pyomo.lp
Objective sense      : Minimize
Variables            :     104  [Nneg: 1,  Binary: 99,  General Integer: 4]
Objective nonzeros   :       1
Linear constraints   :      73  [Less: 36,  Equal: 37]
  Nonzeros           :    2185
  RHS nonzeros       :      67

Variables            : Min LB: 0.000000         Max UB: 1.000000       
Objective nonzeros   : Min   : 1.000000         Max   : 1.000000       
Linear constraints   :
  Nonzeros           : Min   : 1.000000         Max   : 1950.000       
  RHS nonzeros       : Min   : 1.000000         Max   : 4.000000       
Tried aggregator 2 times.
MIP Presolve eliminated 33 rows and 3 columns.
Aggregator did 4 substitutions.
Reduced MIP has 36 rows, 97 columns, and 253 nonzeros.
Reduced MIP has 96 binaries, 1 generals, 0 SOSs, and 0 indicators.
Presolve time = 0.00 sec. (0.76 ticks)
Found incumbent of value 33472.000000 after 0.00 sec. (0.95 ticks)
Probing time = 0.00 sec. (0.07 ticks)
Cover probing fixed 0 vars, tightened 1 bounds.
Tried aggregator 1 time.
Reduced MIP has 36 rows, 97 columns, and 253 nonzeros.
Reduced MIP has 96 binaries, 1 generals, 0 SOSs, and 0 indicators.
Presolve time = 0.00 sec. (0.17 ticks)
Probing time = 0.00 sec. (0.04 ticks)
Clique table members: 32.
MIP emphasis: balance optimality and feasibility.
MIP search method: dynamic search.
Parallel mode: none, using 1 thread.
Root relaxation solution time = 0.00 sec. (0.09 ticks)

        Nodes                                         Cuts/
   Node  Left     Objective  IInf  Best Integer    Best Bound    ItCnt     Gap

*     0+    0                        33472.0000     1950.0000            94.17%
      0     0    11157.3333     5    33472.0000    11157.3333        7   66.67%
*     0+    0                        11722.0000    11157.3333             4.82%
      0     0    11158.0000     6    11722.0000      Fract: 1       11    4.81%
      0     0    11158.0000     8    11722.0000       Cuts: 7       23    4.81%
      0     0    11158.0000    10    11722.0000       Cuts: 7       32    4.81%
*     0+    0                        11503.0000    11158.0000             3.00%
*     0+    0                        11359.0000    11158.0000             1.77%
      0     2    11158.0000     4    11359.0000    11158.0000       32    1.77%
Elapsed time = 0.01 sec. (5.24 ticks, tree = 0.01 MB, solutions = 4)
*    50+   30                        11226.0000    11158.0000             0.61%
*    58    30      integral     0    11208.0000    11158.0000      155    0.45%
*   560+   95                        11172.0000    11158.0000             0.13%
*   784   159      integral     0    11170.0000    11158.0000     1452    0.11%
*   851   163      integral     0    11164.0000    11158.0000     1589    0.05%
*  4024    63      integral     0    11159.0000    11158.0000     6662    0.01%

Mixed integer rounding cuts applied:  1

Root node processing (before b&c):
  Real time             =    0.01 sec. (5.24 ticks)
Sequential b&c:
  Real time             =    0.18 sec. (134.24 ticks)
                          ------------
Total (root+branch&cut) =    0.19 sec. (139.48 ticks)

Solution pool: 10 solutions saved.

MIP - Integer optimal, tolerance (0.0001/1e-06):  Objective =  1.1159000000e+04
Current MIP best bound =  1.1158000000e+04 (gap = 1, 0.01%)
Solution time =    0.19 sec.  Iterations = 6662  Nodes = 4025 (62)
Deterministic time = 139.48 ticks  (716.47 ticks/sec)


Incumbent solution written to file '/tmp/tmpTdTTux.cplex.sol'.
